Creating DSP environment
Reading SMPS files: ../SMPS/DCAP/DCAP_2_4_3_300_LP2
Coin0001I At line 1 NAME          DCAP_2_4_3_300_LP2
Coin0001I At line 2 ROWS
Coin0001I At line 28 COLUMNS
Coin0001I At line 111 RHS
Coin0001I At line 124 BOUNDS
Coin0001I At line 167 ENDATA
Coin0002I Problem DCAP_2_4_3_300_LP2 has 24 rows, 48 columns and 84 elements
Coin0001I At line 1 TIME          DCAP_2_4_3_300_LP2
Coin0001I At line 2 PERIODS       IMPLICIT
Coin0001I At line 5 ENDATA

Coin0001I At line 1 STOCH         DCAP_2_4_3_300_LP2
Coin0001I At line 2 SCENARIOS
Coin0001I At line 18243 ENDATA
Read SMPS files: 0.011 sec.
Reading parameter files: /home/choy/Siplib/experiment/DSP/parameters/de_3h.txt
Invalid parameter format.
CPX0000  CPXPARAM_Advance                                 0
CPX0000  CPXPARAM_TimeLimit                               300
CPX0000  CPXPARAM_Threads                                 1
CPX0000  Found incumbent of value 9049.581753 after 0.00 sec. (0.61 ticks)
CPX0000  Tried aggregator 1 time.
CPX0000  Reduced MIP has 5406 rows, 10812 columns, and 21612 nonzeros.
CPX0000  Reduced MIP has 6 binaries, 0 generals, 0 SOSs, and 0 indicators.
CPX0000  Presolve time = 0.01 sec. (9.75 ticks)
CPX0000  Probing time = 0.00 sec. (0.74 ticks)
CPX0000  Tried aggregator 1 time.
CPX0000  Reduced MIP has 5406 rows, 10812 columns, and 21612 nonzeros.
CPX0000  Reduced MIP has 6 binaries, 0 generals, 0 SOSs, and 0 indicators.
CPX0000  Presolve time = 0.02 sec. (12.21 ticks)
CPX0000  Probing time = 0.00 sec. (0.68 ticks)
CPX0000  MIP emphasis: balance optimality and feasibility.
CPX0000  MIP search method: dynamic search.
CPX0000  Parallel mode: none, using 1 thread.
CPX0000  Root relaxation solution time = 0.08 sec. (126.14 ticks)
CPX0000
CPX0000          Nodes                                         Cuts/
CPX0000     Node  Left     Objective  IInf  Best Integer    Best Bound    ItCnt     Gap
CPX0000
CPX0000  *     0+    0                         9049.5818        0.0000           100.00%
CPX0000        0     0     1549.6306     1     9049.5818     1549.6306     2601   82.88%
CPX0000  *     0+    0                         1552.7755     1549.6306             0.20%
CPX0000        0     0     1550.0323     1     1552.7755     Cuts: 495     2861    0.18%
CPX0000        0     0     1550.3499     1     1552.7755      Cuts: 42     2902    0.16%
CPX0000        0     0     1550.3508     1     1552.7755   MIRcuts: 11     2913    0.16%
CPX0000        0     0     1550.3513     1     1552.7755       Cuts: 7     2919    0.16%
CPX0000        0     2     1550.3513     1     1552.7755     1550.5334     2919    0.14%
CPX0000  Elapsed time = 0.33 sec. (341.26 ticks, tree = 0.01 MB
CPX0000
CPX0000  Flow cuts applied:  149
CPX0000  Mixed integer rounding cuts applied:  314
CPX0000  Gomory fractional cuts applied:  2
CPX0000
CPX0000  Root node processing (before b&c):
CPX0000    Real time             =    0.33 sec. (341.51 ticks)
CPX0000  Sequential b&c:
CPX0000    Real time             =    0.00 sec. (4.95 ticks)
CPX0000                            ------------
CPX0000  Total (root+branch&cut) =    0.33 sec. (346.47 ticks)
Status: 3000
Primal Bound: 1552.78
Dual Bound  : 1552.78
